80 9434354
52 13 62 46 73 18 33 11 53 37 25 35 60 72 15 57 54 9 42 20 21 24 65 4 2 74 41 49 27 43 31 39 45 29 28 36 1 7 69 40 63 3 32 64 14 58 6 48 70 59 19 80 71 17 8 79 5 78 22 30 50 47 61 34 77 55 67 26 12 56 76 23 16 51 75 10 44 68 66 38 
